read_restart test.restart.10000

thermo_style custom step temp etotal
thermo 500
fix 1 all nve
run 10000
