units lj
atom_style atomic
boundary p p p
timestep 0.001

read_data test.atoms

mass 1 1.0

pair_style lj/cut 2.5
pair_coeff 1 1 1.0 1.0 2.5

neighbor 0.3 bin
neigh_modify every 20 delay 0 check no

velocity all create 1.0 12345
fix 1 all nve

thermo_style custom step temp etotal
thermo 500
restart 10000 test.restart

run 10000
